Tasks lengths
[39, 44, 46, 62, 62, 63, 66, 75, 78, 80, 85, 87, 91, 91, 93, 94, 96, 97, 100, 102, 105, 107, 111, 115, 119, 121, 121, 122, 122, 141, 141, 143, 143, 146, 154, 155, 158, 158, 174, 209]
10
Academic license - for non-commercial use only - expires 2022-11-10
Using license file /home/benedond/Apps/gurobi/gurobi950/gurobi.lic
Using gurobi.env file
Set parameter Threads to value 1
Changed value of parameter TimeLimit to 300.0
   Prev: inf  Min: 0.0  Max: inf  Default: inf
Gurobi Optimizer version 9.1.2 build v9.1.2rc0 (linux64)
Thread count: 2 physical cores, 4 logical processors, using up to 1 threads
Optimize a model with 450 rows, 410 columns and 1628 nonzeros
Model fingerprint: 0x16ef7558
Model has 400 quadratic objective terms
Variable types: 10 continuous, 400 integer (400 binary)
Coefficient statistics:
  Matrix range     [1e+00, 2e+02]
  Objective range  [0e+00, 0e+00]
  QObjective range [1e-03, 9e-03]
  Bounds range     [1e+00, 1e+00]
  RHS range        [1e+00, 6e+02]
Presolve removed 201 rows and 182 columns
Presolve time: 0.03s
Presolved: 467 rows, 446 columns, 1531 nonzeros
Variable types: 0 continuous, 446 integer (218 binary)

Root relaxation: objective 0.000000e+00, 114 iterations, 0.00 seconds

    Nodes    |    Current Node    |     Objective Bounds      |     Work
 Expl Unexpl |  Obj  Depth IntInf | Incumbent    BestBd   Gap | It/Node Time

     0     0    0.00000    0   48          -    0.00000      -     -    0s
H    0     0                       5.1573114    0.00000   100%     -    0s
H    0     0                       4.3525885    0.00000   100%     -    0s
H    0     0                       4.3494666    0.00000   100%     -    0s
     0     0    0.00000    0   51    4.34947    0.00000   100%     -    0s
H    0     0                       4.3463448    0.00000   100%     -    0s
H    0     0                       4.3369792    0.00000   100%     -    0s
     0     0    0.00000    0   47    4.33698    0.00000   100%     -    0s
     0     0    0.03338    0   46    4.33698    0.03338  99.2%     -    0s
     0     0    0.03338    0   46    4.33698    0.03338  99.2%     -    0s
     0     0    0.52028    0   56    4.33698    0.52028  88.0%     -    0s
     0     0    0.52028    0   51    4.33698    0.52028  88.0%     -    0s
     0     0    1.33685    0   70    4.33698    1.33685  69.2%     -    0s
     0     0    1.41167    0   64    4.33698    1.41167  67.5%     -    0s
     0     0    1.41291    0   67    4.33698    1.41291  67.4%     -    0s
     0     0    2.39483    0   79    4.33698    2.39483  44.8%     -    0s
     0     0    2.39919    0   80    4.33698    2.39919  44.7%     -    0s
     0     0    2.58714    0   92    4.33698    2.58714  40.3%     -    0s
     0     0    2.58714    0   92    4.33698    2.58714  40.3%     -    0s
H    0     0                       3.7457853    2.60412  30.5%     -    0s
     0     2    2.60472    0   92    3.74579    2.60472  30.5%     -    0s
H    3     3                       3.5061173    2.67070  23.8%  71.7    0s
H  162   126                       3.5047945    2.70797  22.7%  20.8    0s
H  217   163                       3.4816705    2.72414  21.8%  21.0    0s
H  271   156                       3.3132811    2.72414  17.8%  19.8    0s
H  298   176                       3.2771266    2.72414  16.9%  19.6    0s
  2107   535    3.25273   30   73    3.27713    3.09500  5.56%  29.0    5s
  4325   756    3.21336   30   69    3.27713    3.15572  3.70%  30.3   10s
  6811   683    3.27231   26   98    3.27713    3.20169  2.30%  30.2   15s

Cutting planes:
  Gomory: 4
  Cover: 155
  Implied bound: 202
  Projected implied bound: 3
  Clique: 2
  MIR: 66
  StrongCG: 1
  Flow cover: 204
  GUB cover: 6
  Inf proof: 1
  Zero half: 2
  RLT: 6
  Relax-and-lift: 31

Explored 8761 nodes (261240 simplex iterations) in 18.26 seconds
Thread count was 1 (of 4 available processors)

Solution count 10: 3.27713 3.31328 3.48167 ... 4.35259

Optimal solution found (tolerance 1.00e-04)
Best objective 3.277126642253e+00, best bound 3.276842277463e+00, gap 0.0087%
